Tables = {Table1, Table2, Table3};
wanted_days = [{Mon}, {Mon}, {Mon}, {Mon}, {Mon}];
wanted_number_days = [{4}, {4}, {4}, {1}, {1}];
wanted_breaks = [true, true, false, false, true];
desired_partners = [{}, {}, {}, {}, {}];
n_agents = 5;
max_wfh_days = 4;